networks/zoo_45_102/standard/zoo_45_102.sol
<?xml version = "1.0" encoding="UTF-8" standalone="yes"?>
<CPLEXSolution version="1.2">
 <header
   problemName="networks/zoo_45_102/zoo_45_102.lp"
   solutionName="incumbent"
   solutionIndex="-1"
   objectiveValue="42"
   solutionTypeValue="3"
   solutionTypeString="primal"
   solutionStatusValue="101"
   solutionStatusString="integer optimal solution"
   solutionMethodString="mip"
   primalFeasible="1"
   dualFeasible="1"
   MIPNodes="0"
   MIPIterations="796"
   writeLevel="3"/>
 <quality
   epInt="1.0000000000000001e-05"
   epRHS="9.9999999999999995e-07"
   maxIntInfeas="0"
   maxPrimalInfeas="0"
   maxX="4"
   maxSlack="10"/>
 <variables>
  <variable name="Y(1,1)" index="0" value="1"/>
  <variable name="Y(2,1)" index="32" value="1"/>
  <variable name="Y(4,2)" index="97" value="1"/>
  <variable name="Y(8,5)" index="228" value="1"/>
  <variable name="Y(10,3)" index="290" value="1"/>
  <variable name="Y(15,5)" index="452" value="1"/>
  <variable name="Y(16,4)" index="483" value="1"/>
  <variable name="Y(18,11)" index="551" value="1"/>
  <variable name="Y(20,7)" index="613" value="1"/>
  <variable name="Y(21,7)" index="645" value="1"/>
  <variable name="Y(22,5)" index="676" value="1"/>
  <variable name="Y(23,8)" index="710" value="1"/>
  <variable name="Y(25,7)" index="773" value="1"/>
  <variable name="Y(26,7)" index="805" value="1"/>
  <variable name="Y(27,17)" index="844" value="1"/>
  <variable name="Y(28,18)" index="877" value="1"/>
  <variable name="Y(29,20)" index="911" value="1"/>
  <variable name="Y(30,21)" index="944" value="1"/>
  <variable name="Y(31,22)" index="977" value="1"/>
  <variable name="Y(35,8)" index="1094" value="1"/>
  <variable name="Y(40,8)" index="1254" value="1"/>
  <variable name="Y(42,15)" index="1322" value="1"/>
  <variable name="Y(46,5)" index="1444" value="1"/>
  <variable name="Y(47,15)" index="1482" value="1"/>
  <variable name="Y(48,15)" index="1514" value="1"/>
  <variable name="Y(50,14)" index="1577" value="1"/>
  <variable name="Y(52,14)" index="1641" value="1"/>
  <variable name="Y(53,1)" index="1664" value="1"/>
  <variable name="Y(56,7)" index="1765" value="1"/>
  <variable name="Y(62,17)" index="1964" value="1"/>
  <variable name="Y(64,17)" index="2028" value="1"/>
  <variable name="Y(68,18)" index="2157" value="1"/>
  <variable name="Y(72,16)" index="2283" value="1"/>
  <variable name="Y(80,19)" index="2542" value="1"/>
  <variable name="Y(86,5)" index="2724" value="1"/>
  <variable name="Y(88,20)" index="2799" value="1"/>
  <variable name="Y(90,20)" index="2863" value="1"/>
  <variable name="Y(91,4)" index="2883" value="1"/>
  <variable name="Y(92,21)" index="2928" value="1"/>
  <variable name="Y(97,22)" index="3089" value="1"/>
  <variable name="Y(100,5)" index="3172" value="1"/>
  <variable name="Y(102,23)" index="3250" value="1"/>
  <variable name="X(1,5,2)" index="3265" value="1"/>
  <variable name="X(1,7,1)" index="3366" value="1"/>
  <variable name="X(1,24,53)" index="3520" value="1"/>
  <variable name="X(2,5,8)" index="3577" value="1"/>
  <variable name="X(2,7,4)" index="3675" value="1"/>
  <variable name="X(3,5,15)" index="3788" value="1"/>
  <variable name="X(3,7,10)" index="3885" value="1"/>
  <variable name="X(4,5,18)" index="3995" value="1"/>
  <variable name="X(4,7,16)" index="4095" value="1"/>
  <variable name="X(4,27,91)" index="4272" value="1"/>
  <variable name="X(5,1,53)" index="4336" value="1"/>
  <variable name="X(5,4,91)" index="4476" value="1"/>
  <variable name="X(5,8,18)" index="4505" value="1"/>
  <variable name="X(5,15,100)" index="4689" value="1"/>
  <variable name="X(5,16,72)" index="4763" value="1"/>
  <variable name="X(5,17,8)" index="4801" value="1"/>
  <variable name="X(5,20,15)" index="4910" value="1"/>
  <variable name="X(5,21,86)" index="5083" value="1"/>
  <variable name="X(5,22,46)" index="5145" value="1"/>
  <variable name="X(5,28,22)" index="5223" value="1"/>
  <variable name="X(7,1,20)" index="5323" value="1"/>
  <variable name="X(7,4,21)" index="5426" value="1"/>
  <variable name="X(7,5,22)" index="5529" value="1"/>
  <variable name="X(7,8,23)" index="5632" value="1"/>
  <variable name="X(7,15,25)" index="5736" value="1"/>
  <variable name="X(7,16,26)" index="5839" value="1"/>
  <variable name="X(7,17,27)" index="5942" value="1"/>
  <variable name="X(7,18,28)" index="6045" value="1"/>
  <variable name="X(7,20,29)" index="6148" value="1"/>
  <variable name="X(7,21,30)" index="6251" value="1"/>
  <variable name="X(7,22,31)" index="6354" value="1"/>
  <variable name="X(7,30,56)" index="6481" value="1"/>
  <variable name="X(8,5,46)" index="6573" value="1"/>
  <variable name="X(8,7,40)" index="6669" value="1"/>
  <variable name="X(8,11,18)" index="6749" value="1"/>
  <variable name="X(8,15,35)" index="6868" value="1"/>
  <variable name="X(8,31,23)" index="6958" value="1"/>
  <variable name="X(11,8,46)" index="7083" value="1"/>
  <variable name="X(11,15,42)" index="7181" value="1"/>
  <variable name="X(11,34,18)" index="7259" value="1"/>
  <variable name="X(12,15,47)" index="7390" value="1"/>
  <variable name="X(14,5,52)" index="7497" value="1"/>
  <variable name="X(14,7,50)" index="7597" value="1"/>
  <variable name="X(15,7,47)" index="7696" value="1"/>
  <variable name="X(15,8,48)" index="7799" value="1"/>
  <variable name="X(15,38,42)" index="7895" value="1"/>
  <variable name="X(16,5,53)" index="8008" value="1"/>
  <variable name="X(16,7,56)" index="8113" value="1"/>
  <variable name="X(16,39,72)" index="8231" value="1"/>
  <variable name="X(17,5,64)" index="8325" value="1"/>
  <variable name="X(17,7,62)" index="8425" value="1"/>
  <variable name="X(17,40,27)" index="8492" value="1"/>
  <variable name="X(18,5,72)" index="8639" value="1"/>
  <variable name="X(18,7,68)" index="8737" value="1"/>
  <variable name="X(18,41,28)" index="8799" value="1"/>
  <variable name="X(19,5,86)" index="8959" value="1"/>
  <variable name="X(19,7,80)" index="9055" value="1"/>
  <variable name="X(20,5,90)" index="9167" value="1"/>
  <variable name="X(20,7,88)" index="9267" value="1"/>
  <variable name="X(20,43,29)" index="9310" value="1"/>
  <variable name="X(21,5,91)" index="9474" value="1"/>
  <variable name="X(21,7,92)" index="9577" value="1"/>
  <variable name="X(21,44,30)" index="9617" value="1"/>
  <variable name="X(22,5,100)" index="9789" value="1"/>
  <variable name="X(22,7,97)" index="9888" value="1"/>
  <variable name="X(22,45,31)" index="9924" value="1"/>
  <variable name="X(23,7,102)" index="10097" value="1"/>
  <variable name="C(8,5)" index="10119" value="1"/>
  <variable name="C(15,5)" index="10140" value="1"/>
  <variable name="C(18,5)" index="10148" value="1"/>
  <variable name="C(18,8)" index="10149" value="2"/>
  <variable name="C(18,11)" index="10150" value="3"/>
  <variable name="C(22,5)" index="10159" value="1"/>
  <variable name="C(23,8)" index="10161" value="1"/>
  <variable name="C(27,17)" index="10170" value="1"/>
  <variable name="C(28,18)" index="10172" value="1"/>
  <variable name="C(29,20)" index="10174" value="1"/>
  <variable name="C(30,21)" index="10176" value="1"/>
  <variable name="C(31,22)" index="10178" value="1"/>
  <variable name="C(42,15)" index="10208" value="1"/>
  <variable name="C(46,8)" index="10222" value="1"/>
  <variable name="C(46,5)" index="10223" value="2"/>
  <variable name="C(47,15)" index="10226" value="1"/>
  <variable name="C(53,16)" index="10241" value="2"/>
  <variable name="C(53,5)" index="10242" value="3"/>
  <variable name="C(53,1)" index="10243" value="4"/>
  <variable name="C(56,7)" index="10250" value="1"/>
  <variable name="C(72,5)" index="10296" value="1"/>
  <variable name="C(72,16)" index="10297" value="2"/>
  <variable name="C(86,5)" index="10337" value="1"/>
  <variable name="C(91,5)" index="10351" value="1"/>
  <variable name="C(91,4)" index="10352" value="2"/>
  <variable name="C(100,5)" index="10378" value="1"/>
 </variables>
</CPLEXSolution>
